qe/outputs/qe/cbrdelay_obs_newl/T=6,eliminate=[I_0,I_1,I_2,I_3,I_4,I_5,L_3,L_4,L_5,lhs=S_5].smt2
; benchmark generated from python API
(set-info :status unknown)
(declare-fun S_2 () Real)
(declare-fun S_5 () Real)
(declare-fun C () Real)
(declare-fun S_3 () Real)
(declare-fun S_4 () Real)
(declare-fun L_2 () Real)
(declare-fun A_2 () Real)
(declare-fun B () Real)
(declare-fun A_1 () Real)
(declare-fun L_1 () Real)
(declare-fun L_0 () Real)
(declare-fun A_0 () Real)
(declare-fun A_5 () Real)
(declare-fun S_0 () Real)
(declare-fun S_1 () Real)
(declare-fun A_3 () Real)
(declare-fun A_4 () Real)
(assert
 (let (($x22114 (>= (+ (* (- 1.0) A_2) L_2 S_4 (* (- 1.0) B) (* (- 1.0) C)) 0.0)))
 (let (($x22113 (>= (+ S_4 (* (- 1.0) B) (* (- 2.0) C) (* (- 1.0) S_2)) 0.0)))
 (let (($x22108 (>= (+ S_4 (* (- 1.0) B) (* (- 1.0) C) (* (- 1.0) S_3)) 0.0)))
 (let (($x39 (>= L_0 0.0)))
 (let (($x689 (>= C 5.0)))
 (let (($x682 (>= B 5.0)))
 (let (($x22248 (<= 0.0 (+ (* (- 1.0) A_1) C S_0 L_1))))
 (let (($x22249 (not $x22248)))
 (let (($x21979 (<= 0.0 (+ (* (- 1.0) A_2) L_2 (* (- 1.0) L_1) A_1 C))))
 (let (($x21980 (not $x21979)))
 (let (($x21544 (<= 0.0 (+ (* (- 1.0) B) C (* (- 1.0) A_4) A_3))))
 (let (($x21785 (not $x21544)))
 (let ((?x434 (* (- 1.0) S_5)))
 (let ((?x445 (* (- 1.0) A_3)))
 (let ((?x297 (* (- 1.0) L_2)))
 (let (($x2704 (<= (+ A_2 ?x297 B C A_4 ?x445 ?x434) 0.0)))
 (let (($x1217 (<= (+ ?x297 A_4 ?x434) 0.0)))
 (let (($x7733 (<= (+ (* 4.0 C) ?x434 S_0) 0.0)))
 (let (($x6347 (<= (+ B (* 3.0 C) A_4 ?x445 ?x434 S_0) 0.0)))
 (let (($x1606 (<= (+ A_2 ?x297 (* 2.0 C) ?x434) 0.0)))
 (let ((?x407 (* (- 1.0) S_1)))
 (let ((?x448 (* (- 1.0) A_4)))
 (let ((?x2091 (* (- 4.0) C)))
 (let ((?x271 (* (- 1.0) B)))
 (let (($x13236 (<= (+ ?x271 (* (- 5.0) C) ?x448 A_3 S_5 (* (- 1.0) S_0)) 0.0)))
 (let (($x15499 (<= (+ ?x271 (* (- 3.0) C) (* (- 1.0) A_5) A_3 S_5 ?x407) 0.0)))
 (let (($x15525 (<= (+ ?x271 ?x2091 (* (- 1.0) A_5) A_3 S_5 (* (- 1.0) S_0)) 0.0)))
 (let (($x21997 (<= 0.0 (+ L_2 (* (- 1.0) L_1) A_1 B (* 2.0 C) ?x445))))
 (let (($x4995 (<= (+ (* (- 1.0) L_1) A_1 (* 3.0 C) ?x434) 0.0)))
 (let (($x3787 (<= (+ (* (- 1.0) L_1) A_1 B (* 2.0 C) A_4 ?x445 ?x434) 0.0)))
 (let (($x13361 (<= (+ ?x271 (* (- 2.0) C) ?x448 A_3 S_5 (* (- 1.0) S_3)) 0.0)))
 (let ((?x420 (* (- 1.0) S_3)))
 (let ((?x451 (* (- 1.0) A_5)))
 (let ((?x355 (* (- 1.0) C)))
 (let (($x5684 (<= (+ L_1 (* (- 1.0) A_1) ?x271 (* (- 2.0) C) ?x451 A_3 S_5) 0.0)))
 (let (($x15534 (<= (+ ?x271 (* (- 3.0) C) ?x451 A_3 (* (- 1.0) A_0) S_5 L_0) 0.0)))
 (let (($x12936 (<= (+ ?x271 (* (- 3.0) C) ?x448 A_3 S_5 (* (- 1.0) S_2)) 0.0)))
 (let (($x15503 (<= (+ ?x271 (* (- 2.0) C) ?x451 A_3 S_5 (* (- 1.0) S_2)) 0.0)))
 (let (($x2659 (<= (+ (* (- 1.0) A_2) L_2 ?x271 (* (- 2.0) C) ?x448 A_3 S_5) 0.0)))
 (let (($x3833 (<= (+ L_1 (* (- 1.0) A_1) ?x271 (* (- 3.0) C) ?x448 A_3 S_5) 0.0)))
 (let (($x8011 (<= (+ ?x271 (* (- 3.0) C) A_4 ?x451 S_5 (* (- 1.0) S_2)) 0.0)))
 (let (($x8120 (<= (+ ?x271 (* (- 5.0) C) A_4 ?x451 S_5 (* (- 1.0) S_0)) 0.0)))
 (let (($x10259 (<= (+ (* (- 1.0) A_2) L_2 ?x271 (* (- 2.0) C) A_4 ?x451 S_5) 0.0)))
 (let (($x22933 (or $x1217 (<= (+ B C A_4 ?x445 ?x434 S_2) 0.0) (<= (+ (* 2.0 C) ?x434 S_2) 0.0))))
 (let (($x10276 (<= (+ L_1 (* (- 1.0) A_1) ?x271 (* (- 3.0) C) A_4 ?x451 S_5) 0.0)))
 (let (($x22799 (or $x1217 $x1606 $x2704 (<= (+ (* 3.0 C) ?x434 S_1) 0.0) (<= (+ B (* 2.0 C) A_4 ?x445 ?x434 S_1) 0.0))))
 (let (($x22380 (not (<= 0.0 (+ S_4 ?x271 (* (- 3.0) C) (* (- 1.0) A_0) L_0)))))
 (let (($x1673 (<= (+ A_2 ?x297 ?x420) 0.0)))
 (let (($x11406 (or $x1673 (<= (+ (* (- 1.0) L_1) A_1 C ?x420) 0.0) (<= (+ (* 2.0 C) ?x420 S_0) 0.0))))
 (let (($x21966 (not (<= 0.0 (+ S_4 L_1 (* (- 1.0) A_1) ?x271 (* (- 2.0) C))))))
 (let (($x66 (= L_2 L_1)))
 (let (($x40006 (or $x66 (<= (+ (* (- 1.0) A_2) L_2 ?x355 ?x451 A_3 S_5) 0.0))))
 (let (($x9683 (<= (+ (* (- 1.0) A_2) L_2 (* (- 2.0) C) A_4 ?x451 S_5) 0.0)))
 (let (($x1257 (<= (+ ?x297 A_3 (* (- 1.0) A_1) (* (- 2.0) C) L_1) 0.0)))
 (let (($x1278 (not $x1257)))
 (let (($x585 (<= 0.0 (+ (* (- 1.0) A_2) L_2 A_1 C (* (- 1.0) L_1) ?x271))))
 (let (($x541 (<= 0.0 (+ A_2 B C ?x445))))
 (let (($x39604 (or $x1217 (not (<= (+ A_2 ?x297 B ?x355 (* (- 1.0) A_1) L_1) 0.0)) $x1606 (<= (+ B ?x355 A_4 ?x445) 0.0))))
 (let (($x22416 (or $x1217 (<= (+ B A_4 ?x445 ?x434 S_3) 0.0) (<= (+ ?x434 C S_3) 0.0))))
 (let (($x7708 (or (<= (+ (* (- 1.0) L_1) A_1 (* (- 1.0) S_2)) 0.0) (<= (+ C (* (- 1.0) S_2) S_0) 0.0))))
 (let (($x1669 (<= (+ A_2 ?x297 (* (- 1.0) S_4) C) 0.0)))
 (let (($x608 (<= 0.0 (+ S_4 (* (- 2.0) C) (* (- 1.0) A_1) L_1))))
 (let (($x22121 (or $x608 $x1669 (<= (+ (* (- 1.0) S_4) (* 3.0 C) S_0) 0.0))))
 (let (($x56 (= L_1 L_0)))
 (let (($x2076 (<= (+ ?x271 (* 3.0 C) A_1 ?x434 (* (- 1.0) L_1)) 0.0)))
 (let (($x3361 (<= (+ (* (- 1.0) A_2) L_2 (* (- 2.0) C) ?x448 A_3 S_5) 0.0)))
 (let (($x20261 (<= 0.0 (+ A_2 C ?x445))))
 (let (($x4388 (<= (+ A_2 ?x297 ?x271 (* 2.0 C) ?x434) 0.0)))
 (let (($x4513 (or $x66 (<= (+ (* (- 1.0) A_2) L_2 B (* (- 3.0) C) S_5) 0.0))))
 (let (($x4474 (or $x66 (<= (+ (* (- 1.0) A_2) L_2 S_4 B (* (- 2.0) C)) 0.0))))
 (let (($x937 (not $x56)))
 (let (($x24844 (or $x66 $x937 (<= (+ (* (- 1.0) A_2) L_2 C A_1 (* (- 1.0) L_0)) 0.0))))
 (let (($x3863 (= (+ (* (- 1.0) A_2) L_2 (* (- 1.0) L_1) A_1 B C) 0.0)))
 (let (($x39453 (or $x3863 (not (<= 0.0 (+ A_2 ?x297 ?x271 ?x355 (* (- 1.0) A_1) L_1))))))
 (let (($x3400 (<= (+ A_2 ?x297 ?x271 (* (- 2.0) C) (* (- 1.0) A_0) L_0) 0.0)))
 (let (($x21949 (<= 0.0 (+ A_2 ?x297 ?x271 ?x355 (* (- 1.0) A_1) L_1))))
 (let (($x39493 (or $x66 (<= (+ (* (- 1.0) A_2) L_2 B (* 2.0 C) S_0) 0.0) $x21949)))
 (let (($x2471 (<= (+ (* (- 2.0) C) ?x451 A_3 (* (- 1.0) A_1) S_5 L_1) 0.0)))
 (let (($x2432 (<= (+ (* (- 3.0) C) A_4 ?x451 (* (- 1.0) A_1) S_5 L_1) 0.0)))
 (let (($x2018 (<= (+ (* (- 3.0) C) ?x448 A_3 (* (- 1.0) A_1) S_5 L_1) 0.0)))
 (let (($x2003 (<= (+ (* 2.0 C) A_4 ?x445 A_1 ?x434 (* (- 1.0) L_1)) 0.0)))
 (let (($x40391 (or $x56 (<= (+ S_4 B (* (- 3.0) C) (* (- 1.0) A_1) L_1) 0.0))))
 (let (($x25751 (or $x56 $x66 (= (+ (* (- 1.0) A_2) L_2 A_1 C (* (- 1.0) L_1)) 0.0))))
 (let (($x39223 (or $x56 (<= (+ (* (- 1.0) A_1) S_3 (* (- 2.0) C) L_1 B) 0.0))))
 (let (($x1246 (<= (+ A_1 (* (- 2.0) C) (* (- 1.0) S_0) (* (- 1.0) L_1) ?x271) 0.0)))
 (let (($x1223 (<= (+ (* (- 1.0) S_4) A_1 (* 2.0 C) (* (- 1.0) L_1) ?x271) 0.0)))
 (let (($x1271 (<= (+ A_1 (* (- 1.0) A_0) ?x355 (* (- 1.0) L_1) ?x271 L_0) 0.0)))
 (let (($x1235 (<= (+ A_1 (* (- 1.0) S_2) (* (- 1.0) L_1) ?x271) 0.0)))
 (let (($x128 (>= S_1 S_0)))
 (let (($x131 (>= S_2 S_1)))
 (let (($x134 (>= S_3 S_2)))
 (let (($x137 (>= S_4 S_3)))
 (let (($x140 (>= S_5 S_4)))
 (let (($x142 (>= A_1 A_0)))
 (let (($x143 (>= A_2 A_1)))
 (let (($x145 (>= A_4 A_3)))
 (let (($x146 (>= A_5 A_4)))
 (and (<= (+ A_2 ?x297) S_4) $x146 $x145 $x143 $x142 $x140 $x137 $x134 $x131 $x128 (or (not (<= 0.0 (+ (* (- 1.0) L_1) L_0))) $x56) $x1235 (or $x56 (<= (+ (* (- 1.0) A_1) S_1 L_1 B) 0.0)) $x1271 (or $x585 $x1223) (or $x56 (<= (+ (* (- 1.0) A_1) C S_0 L_1 B) 0.0)) (or $x1223 $x1669) (<= (+ A_1 ?x355 ?x407 (* (- 1.0) L_1) ?x271) 0.0) $x1246 $x39223 $x25751 (or (<= (+ A_1 ?x420 C (* (- 1.0) L_1) ?x271) 0.0) $x1673) (or $x56 (<= (+ (* (- 1.0) A_1) ?x355 S_2 L_1 B) 0.0)) (or $x56 (<= 0.0 (+ (* (- 1.0) A_2) A_1 C)) (not $x66)) $x40391 (or $x585 $x1257 $x2003 $x2076) (or $x56 (not $x608)) (or $x56 $x2018) (or $x56 $x2432) (or $x56 $x2471) (<= (+ A_2 ?x297 (* (- 1.0) S_4) ?x271 C) 0.0) (or $x66 (<= (+ (* (- 1.0) A_2) L_2 B C S_1) 0.0)) (or $x66 (<= (+ (* (- 1.0) A_2) L_2 B ?x355 S_3) 0.0)) (or $x66 (<= (+ (* (- 1.0) A_2) L_2 B S_2) 0.0)) (or $x66 (not (<= 0.0 (+ ?x297 L_1)))) (<= (+ A_2 ?x297 ?x271 ?x355 (* (- 1.0) S_2)) 0.0) $x39493 $x3400 (<= (+ A_2 ?x297 ?x271 (* (- 2.0) C) ?x407) 0.0) $x39453 (<= (+ A_2 ?x297 ?x271 (* (- 3.0) C) (* (- 1.0) S_0)) 0.0) (or (not $x1669) $x66) $x24844 (<= (+ A_2 ?x297 ?x271 ?x420) 0.0) $x4474 (or $x1217 $x4388 (not $x20261)) $x4513 (or (<= (+ A_2 ?x297 C A_4 ?x445 ?x434) 0.0) $x4388 $x20261) (or $x66 $x3361) (or $x585 $x1217 $x1278 $x2076) (or $x56 (<= (+ B ?x2091 (* (- 1.0) A_1) S_5 L_1) 0.0)) (<= (+ L_1 (* (- 1.0) A_1) (* (- 2.0) C) S_3) 0.0) (or $x1669 (<= (+ (* (- 1.0) S_4) (* 2.0 C) S_1) 0.0)) (<= (+ (* (- 1.0) A_0) ?x355 S_1 L_0) 0.0) $x22121 (<= (+ L_2 ?x448 S_5 ?x355) 0.0) $x7708 (or $x1673 (<= (+ C ?x420 S_1) 0.0)) (<= (+ (* (- 1.0) S_4) ?x271 ?x355 A_4 ?x451 S_5) 0.0) $x22416 $x39604 (or $x541 (not $x585) $x1606 $x2704) (or (not $x541) $x1217 $x1278 $x21785) (or $x66 $x9683) (<= (+ (* (- 3.0) C) (* (- 1.0) A_0) S_3 L_0) 0.0) $x40006 $x21966 (<= (+ L_1 (* (- 1.0) A_1) ?x355 S_2) 0.0) (<= (+ ?x2091 S_3 (* (- 1.0) S_0)) 0.0) $x11406 (<= (+ (* (- 2.0) C) S_2 ?x407) 0.0) (<= (+ (* (- 5.0) C) S_5 ?x407) 0.0) $x22380 (not (<= 0.0 (+ S_4 ?x271 (* (- 3.0) C) ?x407))) (<= (+ S_4 (* (- 5.0) C) (* (- 1.0) S_0)) 0.0) (not (<= 0.0 (+ S_4 ?x271 ?x2091 (* (- 1.0) S_0)))) (<= (+ (* (- 2.0) C) (* (- 1.0) A_0) S_2 L_0) 0.0) (<= (+ (* (- 3.0) C) S_2 (* (- 1.0) S_0)) 0.0) (<= (+ S_4 ?x2091 ?x407) 0.0) (<= (+ (* (- 1.0) A_2) L_2 (* (- 3.0) C) S_5) 0.0) (<= (+ (* (- 6.0) C) S_5 (* (- 1.0) S_0)) 0.0) $x22799 (<= (+ L_1 (* (- 1.0) A_1) ?x2091 S_5) 0.0) (<= (+ (* (- 5.0) C) (* (- 1.0) A_0) S_5 L_0) 0.0) $x10276 (or $x21544 (not (<= 0.0 (+ S_4 ?x271 C ?x434)))) (or $x1217 $x6347 $x7733 $x21979 $x22248) $x22933 (<= (+ (* (- 1.0) S_4) ?x271 ?x355 ?x448 A_3 S_5) 0.0) (<= (+ ?x271 ?x2091 A_4 ?x451 (* (- 1.0) A_0) S_5 L_0) 0.0) (<= (+ ?x271 (* (- 2.0) C) A_4 ?x451 S_5 ?x420) 0.0) $x10259 $x8120 $x8011 (<= (+ ?x271 ?x2091 A_4 ?x451 S_5 ?x407) 0.0) (or $x1217 $x4995 $x21544 $x21979 $x22249) (or $x1217 $x1606 $x21544 $x21980 $x22249) $x3833 $x2659 $x15503 (<= (+ (* (- 1.0) A_2) L_2 ?x271 ?x355 ?x451 A_3 S_5) 0.0) (or $x21785 (not (<= 0.0 (+ S_4 A_4 ?x445 ?x434)))) $x12936 (<= (+ (* (- 1.0) S_4) ?x271 ?x451 A_3 S_5) 0.0) $x15534 $x5684 (<= (+ ?x271 ?x355 ?x451 A_3 S_5 ?x420) 0.0) (<= (+ ?x271 ?x2091 ?x448 A_3 (* (- 1.0) A_0) S_5 L_0) 0.0) $x13361 (or $x3787 $x4995 $x21979 $x21997 $x22249) (or $x1217 $x21785 $x21979 (not $x21997) $x22249) $x15525 $x15499 $x13236 (<= (+ ?x271 ?x2091 ?x448 A_3 S_5 ?x407) 0.0) (or $x1217 $x1606 $x2704 $x6347 $x7733 $x22248) (or $x1217 $x2704 $x21785 $x21980 $x22249) $x682 $x689 $x39 (not (>= (+ L_2 S_4 ?x445) 0.0)) (<= (+ (* (- 1.0) A_0) S_0 L_0) 0.0) (<= (+ (* (- 1.0) A_2) L_2 ?x355 S_3) 0.0) (<= (+ (* (- 1.0) S_4) C S_2) 0.0) (<= (+ (* (- 1.0) A_2) L_2 S_2) 0.0) (<= (+ (* (- 3.0) C) S_3 ?x407) 0.0) (<= (+ L_1 (* (- 1.0) A_1) S_1) 0.0) (<= (+ (* (- 2.0) C) S_1 (* (- 1.0) S_0)) 0.0) (<= (+ L_2 ?x451 S_5) 0.0) (<= (+ (* (- 2.0) C) S_3 (* (- 1.0) S_2)) 0.0) (<= (+ S_4 (* (- 2.0) C) ?x420) 0.0) (not $x22108) (<= (+ S_4 ?x2091 (* (- 1.0) A_0) L_0) 0.0) (<= (+ S_4 L_1 (* (- 1.0) A_1) (* (- 3.0) C)) 0.0) (not $x22113) (not $x22114) (<= (+ S_4 (* (- 3.0) C) (* (- 1.0) S_2)) 0.0) (<= (+ (* (- 1.0) A_2) L_2 S_4 (* (- 2.0) C)) 0.0) (<= (+ (* (- 1.0) S_4) (* (- 2.0) C) S_5) 0.0) (<= (+ (* (- 3.0) C) S_5 ?x420) 0.0) (<= (+ ?x2091 S_5 (* (- 1.0) S_2)) 0.0))))))))))))))))))))))))))))))))))))))))))))))))))))))))))))))))))))))))))))))))))))))))))))))))))))
(check-sat)
